Instance Name : r208
Date : 2022-07-18
Solution
Route 1 : 27 52 7 88 31 69 1 70 10 62 11 19 48 82 18 83 60 5 99 93 85 91 44 14 38 86 16 61 84 17 45 8 46 47 36 49 64 63 90 32 30 20 66 65 71 35 34 78 3 77 68 80 12 26
Route 2 : 94 95 92 42 43 15 41 23 67 39 56 75 22 2 57 87 53 28 76 50 51 9 81 33 79 29 24 54 55 25 4 72 74 73 21 40 58 13 97 37 100 98 59 96 6 89
